(set-info :smt-lib-version 2.6)
(set-info :category "crafted")
(set-logic QF_FF)
(define-sort FF0 () (_ FiniteField 52435875175126190479447740508185965837690552500527637822603658699938581184513))
(declare-fun out_alt () FF0)
(declare-fun _34_alt () FF0)
(declare-fun _9_alt () FF0)
(declare-fun _33_alt () FF0)
(declare-fun _8_alt () FF0)
(declare-fun _32_alt () FF0)
(declare-fun _7_alt () FF0)
(declare-fun _31_alt () FF0)
(declare-fun _6_alt () FF0)
(declare-fun _30_alt () FF0)
(declare-fun _5_alt () FF0)
(declare-fun _29_alt () FF0)
(declare-fun _4_alt () FF0)
(declare-fun _28_alt () FF0)
(declare-fun _3_alt () FF0)
(declare-fun _27_alt () FF0)
(declare-fun _2_alt () FF0)
(declare-fun _26_alt () FF0)
(declare-fun _17_alt () FF0)
(declare-fun _25_alt () FF0)
(declare-fun _16_alt () FF0)
(declare-fun _24_alt () FF0)
(declare-fun _15_alt () FF0)
(declare-fun _23_alt () FF0)
(declare-fun _14_alt () FF0)
(declare-fun _22_alt () FF0)
(declare-fun _13_alt () FF0)
(declare-fun _21_alt () FF0)
(declare-fun _12_alt () FF0)
(declare-fun _20_alt () FF0)
(declare-fun _11_alt () FF0)
(declare-fun _19_alt () FF0)
(declare-fun _10_alt () FF0)
(declare-fun _18_alt () FF0)
(declare-fun _1_alt () FF0)
(declare-fun _0_alt () FF0)
(declare-fun out () FF0)
(declare-fun _34 () FF0)
(declare-fun _9 () FF0)
(declare-fun _33 () FF0)
(declare-fun _8 () FF0)
(declare-fun _32 () FF0)
(declare-fun _7 () FF0)
(declare-fun _31 () FF0)
(declare-fun _6 () FF0)
(declare-fun _30 () FF0)
(declare-fun _5 () FF0)
(declare-fun _29 () FF0)
(declare-fun _4 () FF0)
(declare-fun _28 () FF0)
(declare-fun _3 () FF0)
(declare-fun _27 () FF0)
(declare-fun _2 () FF0)
(declare-fun _26 () FF0)
(declare-fun _17 () FF0)
(declare-fun _25 () FF0)
(declare-fun _16 () FF0)
(declare-fun _24 () FF0)
(declare-fun _15 () FF0)
(declare-fun _23 () FF0)
(declare-fun _14 () FF0)
(declare-fun _22 () FF0)
(declare-fun _13 () FF0)
(declare-fun _21 () FF0)
(declare-fun _12 () FF0)
(declare-fun _20 () FF0)
(declare-fun _11 () FF0)
(declare-fun _19 () FF0)
(declare-fun _10 () FF0)
(declare-fun _18 () FF0)
(declare-fun _1 () FF0)
(declare-fun _0 () FF0)
(assert 
  (let ((let0 out_alt))
  (let ((let1 _34_alt))
  (let ((let2 (= let1 let0)))
  (let ((let3 _9_alt))
  (let ((let4 _33_alt))
  (let ((let5 (ff.mul let4 let3)))
  (let ((let6 (= let5 let1)))
  (let ((let7 _8_alt))
  (let ((let8 _32_alt))
  (let ((let9 (ff.mul let8 let7)))
  (let ((let10 (= let9 let4)))
  (let ((let11 _7_alt))
  (let ((let12 _31_alt))
  (let ((let13 (ff.mul let12 let11)))
  (let ((let14 (= let13 let8)))
  (let ((let15 _6_alt))
  (let ((let16 _30_alt))
  (let ((let17 (ff.mul let16 let15)))
  (let ((let18 (= let17 let12)))
  (let ((let19 _5_alt))
  (let ((let20 _29_alt))
  (let ((let21 (ff.mul let20 let19)))
  (let ((let22 (= let21 let16)))
  (let ((let23 _4_alt))
  (let ((let24 _28_alt))
  (let ((let25 (ff.mul let24 let23)))
  (let ((let26 (= let25 let20)))
  (let ((let27 _3_alt))
  (let ((let28 _27_alt))
  (let ((let29 (ff.mul let28 let27)))
  (let ((let30 (= let29 let24)))
  (let ((let31 _2_alt))
  (let ((let32 _26_alt))
  (let ((let33 (ff.mul let32 let31)))
  (let ((let34 (= let33 let28)))
  (let ((let35 _17_alt))
  (let ((let36 _25_alt))
  (let ((let37 (ff.mul let36 let35)))
  (let ((let38 (= let37 let32)))
  (let ((let39 _16_alt))
  (let ((let40 _24_alt))
  (let ((let41 (ff.mul let40 let39)))
  (let ((let42 (= let41 let36)))
  (let ((let43 _15_alt))
  (let ((let44 _23_alt))
  (let ((let45 (ff.mul let44 let43)))
  (let ((let46 (= let45 let40)))
  (let ((let47 _14_alt))
  (let ((let48 _22_alt))
  (let ((let49 (ff.mul let48 let47)))
  (let ((let50 (= let49 let44)))
  (let ((let51 _13_alt))
  (let ((let52 _21_alt))
  (let ((let53 (ff.mul let52 let51)))
  (let ((let54 (= let53 let48)))
  (let ((let55 _12_alt))
  (let ((let56 _20_alt))
  (let ((let57 (ff.mul let56 let55)))
  (let ((let58 (= let57 let52)))
  (let ((let59 _11_alt))
  (let ((let60 _19_alt))
  (let ((let61 (ff.mul let60 let59)))
  (let ((let62 (= let61 let56)))
  (let ((let63 _10_alt))
  (let ((let64 _18_alt))
  (let ((let65 (ff.mul let64 let63)))
  (let ((let66 (= let65 let60)))
  (let ((let67 _1_alt))
  (let ((let68 _0_alt))
  (let ((let69 (ff.mul let68 let67)))
  (let ((let70 (= let69 let64)))
  (let ((let71 (ff.mul let39 let39)))
  (let ((let72 (= let71 let39)))
  (let ((let73 (ff.mul let43 let43)))
  (let ((let74 (= let73 let43)))
  (let ((let75 (ff.mul let47 let47)))
  (let ((let76 (= let75 let47)))
  (let ((let77 (ff.mul let51 let51)))
  (let ((let78 (= let77 let51)))
  (let ((let79 (ff.mul let55 let55)))
  (let ((let80 (= let79 let55)))
  (let ((let81 (ff.mul let59 let59)))
  (let ((let82 (= let81 let59)))
  (let ((let83 (ff.mul let63 let63)))
  (let ((let84 (= let83 let63)))
  (let ((let85 (ff.mul let3 let3)))
  (let ((let86 (= let85 let3)))
  (let ((let87 (ff.mul let7 let7)))
  (let ((let88 (= let87 let7)))
  (let ((let89 (ff.mul let11 let11)))
  (let ((let90 (= let89 let11)))
  (let ((let91 (ff.mul let15 let15)))
  (let ((let92 (= let91 let15)))
  (let ((let93 (ff.mul let19 let19)))
  (let ((let94 (= let93 let19)))
  (let ((let95 (ff.mul let23 let23)))
  (let ((let96 (= let95 let23)))
  (let ((let97 (ff.mul let27 let27)))
  (let ((let98 (= let97 let27)))
  (let ((let99 (ff.mul let31 let31)))
  (let ((let100 (= let99 let31)))
  (let ((let101 (ff.mul let67 let67)))
  (let ((let102 (= let101 let67)))
  (let ((let103 (ff.mul let68 let68)))
  (let ((let104 (= let103 let68)))
  (let ((let105 (and let104 let102 let100 let98 let96 let94 let92 let90 let88 let86 let84 let82 let80 let78 let76 let74 let72 let70 let66 let62 let58 let54 let50 let46 let42 let38 let34 let30 let26 let22 let18 let14 let10 let6 let2)))
  (let ((let106 out))
  (let ((let107 _34))
  (let ((let108 (= let107 let106)))
  (let ((let109 _9))
  (let ((let110 _33))
  (let ((let111 (ff.mul let110 let109)))
  (let ((let112 (= let111 let107)))
  (let ((let113 _8))
  (let ((let114 _32))
  (let ((let115 (ff.mul let114 let113)))
  (let ((let116 (= let115 let110)))
  (let ((let117 _7))
  (let ((let118 _31))
  (let ((let119 (ff.mul let118 let117)))
  (let ((let120 (= let119 let114)))
  (let ((let121 _6))
  (let ((let122 _30))
  (let ((let123 (ff.mul let122 let121)))
  (let ((let124 (= let123 let118)))
  (let ((let125 _5))
  (let ((let126 _29))
  (let ((let127 (ff.mul let126 let125)))
  (let ((let128 (= let127 let122)))
  (let ((let129 _4))
  (let ((let130 _28))
  (let ((let131 (ff.mul let130 let129)))
  (let ((let132 (= let131 let126)))
  (let ((let133 _3))
  (let ((let134 _27))
  (let ((let135 (ff.mul let134 let133)))
  (let ((let136 (= let135 let130)))
  (let ((let137 _2))
  (let ((let138 _26))
  (let ((let139 (ff.mul let138 let137)))
  (let ((let140 (= let139 let134)))
  (let ((let141 _17))
  (let ((let142 _25))
  (let ((let143 (ff.mul let142 let141)))
  (let ((let144 (= let143 let138)))
  (let ((let145 _16))
  (let ((let146 _24))
  (let ((let147 (ff.mul let146 let145)))
  (let ((let148 (= let147 let142)))
  (let ((let149 _15))
  (let ((let150 _23))
  (let ((let151 (ff.mul let150 let149)))
  (let ((let152 (= let151 let146)))
  (let ((let153 _14))
  (let ((let154 _22))
  (let ((let155 (ff.mul let154 let153)))
  (let ((let156 (= let155 let150)))
  (let ((let157 _13))
  (let ((let158 _21))
  (let ((let159 (ff.mul let158 let157)))
  (let ((let160 (= let159 let154)))
  (let ((let161 _12))
  (let ((let162 _20))
  (let ((let163 (ff.mul let162 let161)))
  (let ((let164 (= let163 let158)))
  (let ((let165 _11))
  (let ((let166 _19))
  (let ((let167 (ff.mul let166 let165)))
  (let ((let168 (= let167 let162)))
  (let ((let169 _10))
  (let ((let170 _18))
  (let ((let171 (ff.mul let170 let169)))
  (let ((let172 (= let171 let166)))
  (let ((let173 _1))
  (let ((let174 _0))
  (let ((let175 (ff.mul let174 let173)))
  (let ((let176 (= let175 let170)))
  (let ((let177 (ff.mul let145 let145)))
  (let ((let178 (= let177 let145)))
  (let ((let179 (ff.mul let149 let149)))
  (let ((let180 (= let179 let149)))
  (let ((let181 (ff.mul let153 let153)))
  (let ((let182 (= let181 let153)))
  (let ((let183 (ff.mul let157 let157)))
  (let ((let184 (= let183 let157)))
  (let ((let185 (ff.mul let161 let161)))
  (let ((let186 (= let185 let161)))
  (let ((let187 (ff.mul let165 let165)))
  (let ((let188 (= let187 let165)))
  (let ((let189 (ff.mul let169 let169)))
  (let ((let190 (= let189 let169)))
  (let ((let191 (ff.mul let109 let109)))
  (let ((let192 (= let191 let109)))
  (let ((let193 (ff.mul let113 let113)))
  (let ((let194 (= let193 let113)))
  (let ((let195 (ff.mul let117 let117)))
  (let ((let196 (= let195 let117)))
  (let ((let197 (ff.mul let121 let121)))
  (let ((let198 (= let197 let121)))
  (let ((let199 (ff.mul let125 let125)))
  (let ((let200 (= let199 let125)))
  (let ((let201 (ff.mul let129 let129)))
  (let ((let202 (= let201 let129)))
  (let ((let203 (ff.mul let133 let133)))
  (let ((let204 (= let203 let133)))
  (let ((let205 (ff.mul let137 let137)))
  (let ((let206 (= let205 let137)))
  (let ((let207 (ff.mul let173 let173)))
  (let ((let208 (= let207 let173)))
  (let ((let209 (ff.mul let174 let174)))
  (let ((let210 (= let209 let174)))
  (let ((let211 (and let210 let208 let206 let204 let202 let200 let198 let196 let194 let192 let190 let188 let186 let184 let182 let180 let178 let176 let172 let168 let164 let160 let156 let152 let148 let144 let140 let136 let132 let128 let124 let120 let116 let112 let108)))
  (let ((let212 (= let106 let0)))
  (let ((let213 (not let212)))
  (let ((let214 (= let117 let11)))
  (let ((let215 (= let121 let15)))
  (let ((let216 (= let125 let19)))
  (let ((let217 (= let145 let39)))
  (let ((let218 (= let149 let43)))
  (let ((let219 (= let113 let7)))
  (let ((let220 (= let165 let59)))
  (let ((let221 (= let153 let47)))
  (let ((let222 (= let109 let3)))
  (let ((let223 (= let141 let35)))
  (let ((let224 (= let174 let68)))
  (let ((let225 (= let173 let67)))
  (let ((let226 (= let161 let55)))
  (let ((let227 (= let129 let23)))
  (let ((let228 (= let133 let27)))
  (let ((let229 (= let137 let31)))
  (let ((let230 (= let157 let51)))
  (let ((let231 (= let169 let63)))
  (let ((let232 (and let231 let230 let229 let228 let227 let226 let225 let224 let223 let222 let221 let220 let219 let218 let217 let216 let215 let214)))
  (let ((let233 (and let232 let213 let211 let105)))
  let233
))))))))))))))))))))))))))))))))))))))))))))))))))))))))))))))))))))))))))))))))))))))))))))))))))))))))))))))))))))))))))))))))))))))))))))))))))))))))))))))))))))))))))))))))))))))))))))))))))))))))))))))))))))))))))))))))))))))))))
)
(check-sat)
